(declare-fun args_1_8 () (_ BitVec 8))
(assert (let ((a!1 (or (= #xa2 args_1_8)
               (not (or (= #x57 args_1_8)
                        (= #xc2 args_1_8)
                        (= #x29 args_1_8)
                        (= #xd5 args_1_8)
                        (= #x01 args_1_8)
                        (= #xd2 args_1_8)
                        (= #xd8 args_1_8)
                        (= #xc9 args_1_8)
                        (= #x3b args_1_8)
                        (= #x46 args_1_8)
                        (= #x5d args_1_8)
                        (= #xc5 args_1_8)
                        (= #x49 args_1_8)
                        (= #x25 args_1_8)
                        (= #x4d args_1_8)
                        (= #xa6 args_1_8)
                        (= #x59 args_1_8)
                        (= #xb1 args_1_8)
                        (= #xaa args_1_8)
                        (= #x51 args_1_8)
                        (= #xd0 args_1_8)
                        (= #xc6 args_1_8)
                        (= #xda args_1_8)
                        (= #x3a args_1_8)
                        (= #x2c args_1_8)
                        (= #xa4 args_1_8)
                        (= #x54 args_1_8)
                        (= #x27 args_1_8)
                        (= #xd7 args_1_8)
                        (= #xb2 args_1_8)
                        (= #x37 args_1_8)
                        (= #xa5 args_1_8)
                        (= #xd6 args_1_8)
                        (= #xb9 args_1_8)
                        (= #xd3 args_1_8)
                        (= #x35 args_1_8)
                        (= #x45 args_1_8)
                        (= #x3f args_1_8)
                        (= #xba args_1_8)
                        (= #xdc args_1_8)
                        (= #xac args_1_8)
                        (= #xcb args_1_8)
                        (= #xc8 args_1_8)
                        (= #x4a args_1_8)
                        (= #x4f args_1_8)
                        (= #xd1 args_1_8)
                        (= #x4c args_1_8)
                        (= #xdb args_1_8)
                        (= #x44 args_1_8)
                        (= #x33 args_1_8)
                        (= #x41 args_1_8)
                        (= #x43 args_1_8)
                        (= #xca args_1_8)
                        (= #xb3 args_1_8)
                        (= #xa8 args_1_8)
                        (= #x26 args_1_8)
                        (= #x5b args_1_8)
                        (= #x42 args_1_8)
                        (= #xbe args_1_8)
                        (= #x56 args_1_8)
                        (= #x2a args_1_8)
                        (= #xd9 args_1_8)
                        (= #x36 args_1_8)
                        (= #xd4 args_1_8)
                        (= #xab args_1_8)
                        (= #xbb args_1_8)
                        (= #x40 args_1_8)
                        (= #xbf args_1_8)
                        (= #x24 args_1_8)
                        (= #x28 args_1_8)
                        (= #xb0 args_1_8)
                        (= #x5e args_1_8)
                        (= #x3d args_1_8)
                        (= #xff args_1_8)
                        (= #xc1 args_1_8)
                        (= #xb7 args_1_8)
                        (= #x4b args_1_8)
                        (= #xc4 args_1_8)
                        (= #xce args_1_8)
                        (= #xcc args_1_8)
                        (= #x52 args_1_8)
                        (= #x32 args_1_8)
                        (= #xc3 args_1_8)
                        (= #xaf args_1_8)
                        (= #x58 args_1_8)
                        (= #xbc args_1_8)
                        (= #x2b args_1_8)
                        (= #x4e args_1_8)
                        (= #x39 args_1_8)
                        (= #x53 args_1_8)
                        (= #x2f args_1_8)
                        (= #xad args_1_8)
                        (= #x5a args_1_8)
                        (= #x3c args_1_8)
                        (= #xb8 args_1_8)
                        (= #xb4 args_1_8)
                        (= #x38 args_1_8)
                        (= #x5c args_1_8)
                        (= #xdd args_1_8)
                        (= #xb5 args_1_8)
                        (= #xc0 args_1_8)
                        (= #xb6 args_1_8)
                        (= #x48 args_1_8)
                        (= #x55 args_1_8)
                        (= #xa7 args_1_8)
                        (= #xcf args_1_8)
                        (= #x50 args_1_8)
                        (= #x31 args_1_8)
                        (= #x30 args_1_8)
                        (= #xae args_1_8)
                        (= #xa3 args_1_8)
                        (= #xa9 args_1_8)
                        (= #xcd args_1_8)
                        (= #x2d args_1_8)
                        (= #x47 args_1_8)
                        (= #xbd args_1_8)
                        (= #xc7 args_1_8)
                        (= #x34 args_1_8)
                        (= #x3e args_1_8)
                        (= #x2e args_1_8)
                        (= #x23 args_1_8)
                        (= #xde args_1_8)
                        (= #x22 args_1_8)
                        (= #xdf args_1_8)
                        (= #x21 args_1_8)
                        (= #xe0 args_1_8)
                        (= #x20 args_1_8)
                        (= #xe1 args_1_8)
                        (= #x1f args_1_8)
                        (= #xe2 args_1_8)
                        (= #x1e args_1_8)
                        (= #xe3 args_1_8)
                        (= #x1d args_1_8)
                        (= #xe4 args_1_8)
                        (= #x1c args_1_8)
                        (= #xe5 args_1_8)
                        (= #x1b args_1_8)
                        (= #xe6 args_1_8)
                        (= #x1a args_1_8)
                        (= #xe7 args_1_8)
                        (= #x19 args_1_8)
                        (= #xe8 args_1_8)
                        (= #x18 args_1_8)
                        (= #xe9 args_1_8)
                        (= #x17 args_1_8)
                        (= #xea args_1_8)
                        (= #x16 args_1_8)
                        (= #xeb args_1_8)
                        (= #x15 args_1_8)
                        (= #xec args_1_8)
                        (= #x14 args_1_8)
                        (= #xed args_1_8)
                        (= #x13 args_1_8)
                        (= #xee args_1_8)
                        (= #x12 args_1_8)
                        (= #xef args_1_8)
                        (= #x11 args_1_8)
                        (= #xf0 args_1_8)
                        (= #x10 args_1_8)
                        (= #xf1 args_1_8)
                        (= #x0f args_1_8)
                        (= #xf2 args_1_8)
                        (= #x0e args_1_8)
                        (= #xf3 args_1_8)
                        (= #x0d args_1_8)
                        (= #xf4 args_1_8)
                        (= #x0c args_1_8)
                        (= #xf5 args_1_8)
                        (= #x0b args_1_8)
                        (= #xf6 args_1_8)
                        (= #x0a args_1_8)
                        (= #xf7 args_1_8)
                        (= #x09 args_1_8)
                        (= #xf8 args_1_8)
                        (= #x08 args_1_8)
                        (= #xf9 args_1_8)
                        (= #x07 args_1_8)
                        (= #xfa args_1_8)
                        (= #x06 args_1_8)
                        (= #xfb args_1_8)
                        (= #x05 args_1_8)
                        (= #xfc args_1_8)
                        (= #x04 args_1_8)
                        (= #xfd args_1_8)
                        (= #x03 args_1_8)
                        (= #xfe args_1_8)
                        (= #x02 args_1_8))))))
(let ((a!2 (or (= #xa1 args_1_8) (not (or (= #x5f args_1_8) (not a!1))))))
(let ((a!3 (or (= #xa0 args_1_8) (not (or (= #x60 args_1_8) (not a!2))))))
(let ((a!4 (or (not (or (= #x61 args_1_8) (not a!3))) (= #x9f args_1_8))))
(let ((a!5 (or (= #x9e args_1_8) (not (or (= #x62 args_1_8) (not a!4))))))
(let ((a!6 (or (= #x9d args_1_8) (not (or (= #x63 args_1_8) (not a!5))))))
(let ((a!7 (or (= #x9c args_1_8) (not (or (= #x64 args_1_8) (not a!6))))))
(let ((a!8 (or (not (or (not a!7) (= #x65 args_1_8))) (= #x9b args_1_8))))
(let ((a!9 (or (= #x9a args_1_8) (not (or (= #x66 args_1_8) (not a!8))))))
(let ((a!10 (or (not (or (= #x67 args_1_8) (not a!9))) (= #x99 args_1_8))))
(let ((a!11 (or (= #x98 args_1_8) (not (or (= #x68 args_1_8) (not a!10))))))
(let ((a!12 (or (= #x97 args_1_8) (not (or (= #x69 args_1_8) (not a!11))))))
(let ((a!13 (or (not (or (= #x6a args_1_8) (not a!12))) (= #x96 args_1_8))))
(let ((a!14 (or (= #x95 args_1_8) (not (or (not a!13) (= #x6b args_1_8))))))
(let ((a!15 (or (= #x94 args_1_8) (not (or (not a!14) (= #x6c args_1_8))))))
(let ((a!16 (or (= #x93 args_1_8) (not (or (= #x6d args_1_8) (not a!15))))))
(let ((a!17 (or (not (or (= #x6e args_1_8) (not a!16))) (= #x92 args_1_8))))
(let ((a!18 (or (= #x91 args_1_8) (not (or (= #x6f args_1_8) (not a!17))))))
(let ((a!19 (or (= #x90 args_1_8) (not (or (= #x70 args_1_8) (not a!18))))))
(let ((a!20 (or (not (or (= #x71 args_1_8) (not a!19))) (= #x8f args_1_8))))
(let ((a!21 (or (= #x8e args_1_8) (not (or (not a!20) (= #x72 args_1_8))))))
(let ((a!22 (or (= #x8d args_1_8) (not (or (= #x73 args_1_8) (not a!21))))))
(let ((a!23 (or (= #x8c args_1_8) (not (or (= #x74 args_1_8) (not a!22))))))
(let ((a!24 (or (not (or (= #x75 args_1_8) (not a!23))) (= #x8b args_1_8))))
(let ((a!25 (or (not (or (not a!24) (= #x76 args_1_8))) (= #x8a args_1_8))))
(let ((a!26 (or (= #x89 args_1_8) (not (or (= #x77 args_1_8) (not a!25))))))
(let ((a!27 (or (= #x88 args_1_8) (not (or (= #x78 args_1_8) (not a!26))))))
(let ((a!28 (or (not (or (= #x79 args_1_8) (not a!27))) (= #x87 args_1_8))))
(let ((a!29 (or (= #x86 args_1_8) (not (or (= #x7a args_1_8) (not a!28))))))
(let ((a!30 (or (= #x85 args_1_8) (not (or (= #x7b args_1_8) (not a!29))))))
(let ((a!31 (or (not (or (not a!30) (= #x7c args_1_8))) (= #x84 args_1_8))))
(let ((a!32 (or (= #x83 args_1_8) (not (or (= #x7d args_1_8) (not a!31))))))
(let ((a!33 (concat (ite (or (= #x7e args_1_8)
                             (= #x82 args_1_8)
                             (= #x81 args_1_8)
                             (= #x80 args_1_8)
                             (= #x7f args_1_8)
                             (not a!32))
                         #b0
                         #b1)
                    #x000)))
  (and (bvule #b100000110 (concat args_1_8 #b0))
       (bvule #b0000000000001 a!33)
       (or (= #x02 args_1_8)
           (= #xfe args_1_8)
           (= #x03 args_1_8)
           (= #xfd args_1_8)
           (= #x04 args_1_8)
           (= #xfc args_1_8)
           (= #x05 args_1_8)
           (= #xfb args_1_8)
           (= #x06 args_1_8)
           (= #xfa args_1_8)
           (= #x07 args_1_8)
           (= #xf9 args_1_8)
           (= #x08 args_1_8)
           (= #xf8 args_1_8)
           (= #x09 args_1_8)
           (= #xf7 args_1_8)
           (= #x0a args_1_8)
           (= #xf6 args_1_8)
           (= #x0b args_1_8)
           (= #xf5 args_1_8)
           (= #x0c args_1_8)
           (= #xf4 args_1_8)
           (= #x0d args_1_8)
           (= #xf3 args_1_8)
           (= #x0e args_1_8)
           (= #xf2 args_1_8)
           (= #x0f args_1_8)
           (= #xf1 args_1_8)
           (= #x10 args_1_8)
           (= #xf0 args_1_8)
           (= #x11 args_1_8)
           (= #xef args_1_8)
           (= #x12 args_1_8)
           (= #xee args_1_8)
           (= #x13 args_1_8)
           (= #xed args_1_8)
           (= #x14 args_1_8)
           (= #xec args_1_8)
           (= #x15 args_1_8)
           (= #xeb args_1_8)
           (= #x16 args_1_8)
           (= #xea args_1_8)
           (= #x17 args_1_8)
           (= #xe9 args_1_8)
           (= #x18 args_1_8)
           (= #xe8 args_1_8)
           (= #x19 args_1_8)
           (= #xe7 args_1_8)
           (= #x1a args_1_8)
           (= #xe6 args_1_8)
           (= #x1b args_1_8)
           (= #xe5 args_1_8)
           (= #x1c args_1_8)
           (= #xe4 args_1_8)
           (= #x1d args_1_8)
           (= #xe3 args_1_8)
           (= #x1e args_1_8)
           (= #xe2 args_1_8)
           (= #x1f args_1_8)
           (= #xe1 args_1_8)
           (= #x20 args_1_8)
           (= #xe0 args_1_8)
           (= #x21 args_1_8)
           (= #xdf args_1_8)
           (= #x22 args_1_8)
           (= #xde args_1_8)
           (= #x23 args_1_8)
           (= #x2e args_1_8)
           (= #x3e args_1_8)
           (= #x34 args_1_8)
           (= #x72 args_1_8)
           (= #xc7 args_1_8)
           (= #xbd args_1_8)
           (= #x47 args_1_8)
           (= #x2d args_1_8)
           (= #xcd args_1_8)
           (= #xa9 args_1_8)
           (= #xa3 args_1_8)
           (= #xae args_1_8)
           (= #x30 args_1_8)
           (= #x31 args_1_8)
           (= #x50 args_1_8)
           (= #xcf args_1_8)
           (= #xa7 args_1_8)
           (= #x55 args_1_8)
           (= #x92 args_1_8)
           (= #x48 args_1_8)
           (= #xb6 args_1_8)
           (= #xc0 args_1_8)
           (= #x66 args_1_8)
           (= #xb5 args_1_8)
           (= #x70 args_1_8)
           (= #x76 args_1_8)
           (= #xa2 args_1_8)
           (= #xdd args_1_8)
           (= #x5c args_1_8)
           (= #x38 args_1_8)
           (= #x8b args_1_8)
           (= #xb4 args_1_8)
           (= #x6d args_1_8)
           (= #x84 args_1_8)
           (= #xb8 args_1_8)
           (= #x3c args_1_8)
           (= #x7d args_1_8)
           (= #x5a args_1_8)
           (= #x6f args_1_8)
           (= #xad args_1_8)
           (= #x75 args_1_8)
           (= #x2f args_1_8)
           (= #x7f args_1_8)
           (= #x53 args_1_8)
           (= #x39 args_1_8)
           (= #x9b args_1_8)
           (= #x4e args_1_8)
           (= #x2b args_1_8)
           (= #x83 args_1_8)
           (= #xbc args_1_8)
           (= #x58 args_1_8)
           (= #x7b args_1_8)
           (= #x87 args_1_8)
           (= #xaf args_1_8)
           (= #xc3 args_1_8)
           (= #x32 args_1_8)
           (= #x96 args_1_8)
           (= #x52 args_1_8)
           (= #xcc args_1_8)
           (= #xce args_1_8)
           (= #x8c args_1_8)
           (= #xc4 args_1_8)
           (= #x4b args_1_8)
           (= #xb7 args_1_8)
           (= #xc1 args_1_8)
           (= #xff args_1_8)
           (= #x80 args_1_8)
           (= #x81 args_1_8)
           (= #x3d args_1_8)
           (= #x67 args_1_8)
           (= #x71 args_1_8)
           (= #x5e args_1_8)
           (= #xb0 args_1_8)
           (= #x28 args_1_8)
           (= #x24 args_1_8)
           (= #x74 args_1_8)
           (= #xbf args_1_8)
           (= #x40 args_1_8)
           (= #x65 args_1_8)
           (= #xbb args_1_8)
           (= #xab args_1_8)
           (= #x82 args_1_8)
           (= #x7c args_1_8)
           (= #xd4 args_1_8)
           (= #x36 args_1_8)
           (= #xd9 args_1_8)
           (= #x2a args_1_8)
           (= #x97 args_1_8)
           (= #x56 args_1_8)
           (= #xbe args_1_8)
           (= #x8f args_1_8)
           (= #x93 args_1_8)
           (= #xa0 args_1_8)
           (= #x42 args_1_8)
           (= #x8a args_1_8)
           (= #x5b args_1_8)
           (= #x26 args_1_8)
           (= #x73 args_1_8)
           (= #xa8 args_1_8)
           (= #xb3 args_1_8)
           (= #xca args_1_8)
           (= #x43 args_1_8)
           (= #x41 args_1_8)
           (= #x33 args_1_8)
           (= #x44 args_1_8)
           (= #x5f args_1_8)
           (= #x90 args_1_8)
           (= #x91 args_1_8)
           (= #xdb args_1_8)
           (= #x98 args_1_8)
           (= #x9f args_1_8)
           (= #x4c args_1_8)
           (= #x6a args_1_8)
           (= #xd1 args_1_8)
           (= #x4f args_1_8)
           (= #x4a args_1_8)
           (= #x85 args_1_8)
           (= #xc8 args_1_8)
           (= #xcb args_1_8)
           (= #xac args_1_8)
           (= #xdc args_1_8)
           (= #xba args_1_8)
           (= #x6b args_1_8)
           (= #x3f args_1_8)
           (= #x45 args_1_8)
           (= #x6c args_1_8)
           (= #x35 args_1_8)
           (= #x7a args_1_8)
           (= #x78 args_1_8)
           (= #xd3 args_1_8)
           (= #xb9 args_1_8)
           (= #xd6 args_1_8)
           (= #xa5 args_1_8)
           (= #x37 args_1_8)
           (= #xb2 args_1_8)
           (= #x77 args_1_8)
           (= #x99 args_1_8)
           (= #x86 args_1_8)
           (= #xd7 args_1_8)
           (= #x64 args_1_8)
           (= #x27 args_1_8)
           (= #x54 args_1_8)
           (= #xa4 args_1_8)
           (= #x2c args_1_8)
           (= #x3a args_1_8)
           (= #x95 args_1_8)
           (= #x9e args_1_8)
           (= #x68 args_1_8)
           (= #x89 args_1_8)
           (= #x9a args_1_8)
           (= #xda args_1_8)
           (= #x61 args_1_8)
           (= #xc6 args_1_8)
           (= #xd0 args_1_8)
           (= #x7e args_1_8)
           (= #x69 args_1_8)
           (= #x51 args_1_8)
           (= #x8e args_1_8)
           (= #xaa args_1_8)
           (= #xb1 args_1_8)
           (= #x59 args_1_8)
           (= #xa6 args_1_8)
           (= #x4d args_1_8)
           (= #x9d args_1_8)
           (= #x25 args_1_8)
           (= #x63 args_1_8)
           (= #x49 args_1_8)
           (= #x62 args_1_8)
           (= #xc5 args_1_8)
           (= #x79 args_1_8)
           (= #x5d args_1_8)
           (= #x46 args_1_8)
           (= #x3b args_1_8)
           (= #xc9 args_1_8)
           (= #x94 args_1_8)
           (= #x88 args_1_8)
           (= #xa1 args_1_8)
           (= #xd8 args_1_8)
           (= #x6e args_1_8)
           (= #xd2 args_1_8)
           (= #x01 args_1_8)
           (= #xd5 args_1_8)
           (= #x29 args_1_8)
           (= #x60 args_1_8)
           (= #x9c args_1_8)
           (= #xc2 args_1_8)
           (= #x8d args_1_8)
           (= #x57 args_1_8)))))))))))))))))))))))))))))))))))))
(define-fun goal () (_ BitVec 64) (bvadd (bvshl ((_ zero_extend 32) ((_ zero_extend 24) args_1_8))
              #x0000000000000001)
       #x00000000004e6fe1)) 
(maximize goal)
(check-sat)